(set-logic QF_LIA)
(declare-fun x0 () Int)
(declare-fun x1 () Int)
(declare-fun x2 () Int)
(declare-fun x3 () Int)
(declare-fun x4 () Int)
(declare-fun x5 () Int)
(declare-fun x6 () Int)
(declare-fun x7 () Int)
(declare-fun x8 () Int)
(declare-fun x9 () Int)
(declare-fun A0 () Bool)
(declare-fun A1 () Bool)
(declare-fun A2 () Bool)
(declare-fun A3 () Bool)
(declare-fun A4 () Bool)
(declare-fun A5 () Bool)
(declare-fun A6 () Bool)
(declare-fun A7 () Bool)
(declare-fun A8 () Bool)
(declare-fun A9 () Bool)
(assert (let ((.def_0 (* (- 1) x9))) (let ((.def_1 (< .def_0 1))) (let ((.def_2 (* 1 x0))) (let ((.def_3 (* (- 1) x8))) (let ((.def_4 (+ .def_3 .def_2))) (let ((.def_5 (< .def_4 (- 1)))) (let ((.def_6 (not .def_5))) (let ((.def_7 (and .def_6 .def_1))) (let ((.def_8 (not A7))) (let ((.def_9 (not A2))) (let ((.def_10 (or .def_9 .def_8))) (let ((.def_11 (not .def_10))) (let ((.def_12 (and .def_11 .def_7))) (let ((.def_13 (not .def_12))) (let ((.def_14 (* 1 x9))) (let ((.def_15 (< .def_14 (- 1)))) (let ((.def_16 (not A3))) (let ((.def_17 (or .def_16 .def_15))) (let ((.def_18 (not .def_17))) (let ((.def_19 (* 1 x5))) (let ((.def_20 (< .def_19 1))) (let ((.def_21 (and A5 .def_20))) (let ((.def_22 (not .def_21))) (let ((.def_23 (and .def_22 .def_18))) (let ((.def_24 (not .def_23))) (let ((.def_25 (and .def_24 .def_13))) (let ((.def_26 (* (- 1) x2))) (let ((.def_27 (< .def_26 (- 1)))) (let ((.def_28 (not .def_27))) (let ((.def_29 (* (- 1) x4))) (let ((.def_30 (* (- 1) x7))) (let ((.def_31 (+ .def_30 .def_29))) (let ((.def_32 (< .def_31 (- 1)))) (let ((.def_33 (or .def_32 .def_28))) (let ((.def_34 (not .def_33))) (let ((.def_35 (not A6))) (let ((.def_36 (< .def_3 (- 1)))) (let ((.def_37 (= .def_36 .def_35))) (let ((.def_38 (or .def_37 .def_34))) (let ((.def_39 (not .def_38))) (let ((.def_40 (or .def_8 .def_35))) (let ((.def_41 (* (- 1) x1))) (let ((.def_42 (* 1 x2))) (let ((.def_43 (+ .def_42 .def_41))) (let ((.def_44 (< .def_43 (- 1)))) (let ((.def_45 (not .def_44))) (let ((.def_46 (or .def_45 .def_9))) (let ((.def_47 (and .def_46 .def_40))) (let ((.def_48 (not .def_47))) (let ((.def_49 (or .def_48 .def_39))) (let ((.def_50 (or .def_49 .def_25))) (let ((.def_51 (not .def_50))) (let ((.def_52 (* (- 1) x3))) (let ((.def_53 (* (- 1) x6))) (let ((.def_54 (+ .def_53 .def_52))) (let ((.def_55 (< .def_54 (- 1)))) (let ((.def_56 (or A1 .def_55))) (let ((.def_57 (not .def_56))) (let ((.def_58 (+ .def_2 .def_26))) (let ((.def_59 (< .def_58 (- 1)))) (let ((.def_60 (or A1 .def_59))) (let ((.def_61 (and .def_60 .def_57))) (let ((.def_62 (+ .def_29 .def_2))) (let ((.def_63 (< .def_62 1))) (let ((.def_64 (not A5))) (let ((.def_65 (or .def_64 .def_63))) (let ((.def_66 (not A4))) (let ((.def_67 (or .def_66 .def_35))) (let ((.def_68 (not .def_67))) (let ((.def_69 (or .def_68 .def_65))) (let ((.def_70 (not .def_69))) (let ((.def_71 (or .def_70 .def_61))) (let ((.def_72 (* 1 x4))) (let ((.def_73 (< .def_72 1))) (let ((.def_74 (not .def_73))) (let ((.def_75 (and .def_16 .def_74))) (let ((.def_76 (not .def_75))) (let ((.def_77 (+ .def_41 .def_42))) (let ((.def_78 (< .def_77 (- 1)))) (let ((.def_79 (not .def_78))) (let ((.def_80 (* 1 x7))) (let ((.def_81 (* (- 1) x5))) (let ((.def_82 (+ .def_81 .def_80))) (let ((.def_83 (< .def_82 (- 1)))) (let ((.def_84 (and .def_83 .def_79))) (let ((.def_85 (or .def_84 .def_76))) (let ((.def_86 (not .def_85))) (let ((.def_87 (+ .def_26 .def_29))) (let ((.def_88 (< .def_87 (- 1)))) (let ((.def_89 (not .def_88))) (let ((.def_90 (or .def_28 .def_89))) (let ((.def_91 (< .def_52 (- 1)))) (let ((.def_92 (not .def_91))) (let ((.def_93 (or .def_92 A1))) (let ((.def_94 (and .def_93 .def_90))) (let ((.def_95 (not .def_94))) (let ((.def_96 (or .def_95 .def_86))) (let ((.def_97 (not .def_96))) (let ((.def_98 (and .def_97 .def_71))) (let ((.def_99 (or .def_98 .def_51))) (let ((.def_100 (< .def_30 (- 1)))) (let ((.def_101 (or .def_100 A7))) (let ((.def_102 (* (- 1) x0))) (let ((.def_103 (< .def_102 (- 1)))) (let ((.def_104 (not .def_103))) (let ((.def_105 (< .def_3 1))) (let ((.def_106 (or .def_105 .def_104))) (let ((.def_107 (not .def_106))) (let ((.def_108 (or .def_107 .def_101))) (let ((.def_109 (* 1 x6))) (let ((.def_110 (< .def_109 1))) (let ((.def_111 (+ .def_14 .def_80))) (let ((.def_112 (< .def_111 (- 1)))) (let ((.def_113 (not .def_112))) (let ((.def_114 (= .def_113 .def_110))) (let ((.def_115 (< .def_0 (- 1)))) (let ((.def_116 (not .def_115))) (let ((.def_117 (= .def_116 A5))) (let ((.def_118 (not .def_117))) (let ((.def_119 (or .def_118 .def_114))) (let ((.def_120 (not .def_119))) (let ((.def_121 (and .def_120 .def_108))) (let ((.def_122 (* 1 x3))) (let ((.def_123 (+ .def_122 .def_14))) (let ((.def_124 (< .def_123 1))) (let ((.def_125 (not .def_124))) (let ((.def_126 (+ .def_30 .def_41))) (let ((.def_127 (< .def_126 (- 1)))) (let ((.def_128 (not .def_127))) (let ((.def_129 (and .def_128 .def_125))) (let ((.def_130 (not .def_129))) (let ((.def_131 (* 1 x8))) (let ((.def_132 (+ .def_53 .def_131))) (let ((.def_133 (< .def_132 1))) (let ((.def_134 (or A5 .def_133))) (let ((.def_135 (or .def_134 .def_130))) (let ((.def_136 (+ .def_29 .def_42))) (let ((.def_137 (< .def_136 1))) (let ((.def_138 (or .def_137 .def_9))) (let ((.def_139 (or A7 A8))) (let ((.def_140 (not .def_139))) (let ((.def_141 (and .def_140 .def_138))) (let ((.def_142 (and .def_141 .def_135))) (let ((.def_143 (not .def_142))) (let ((.def_144 (= .def_143 .def_121))) (let ((.def_145 (+ .def_42 .def_19))) (let ((.def_146 (< .def_145 (- 1)))) (let ((.def_147 (not .def_146))) (let ((.def_148 (or .def_66 .def_147))) (let ((.def_149 (not .def_148))) (let ((.def_150 (+ .def_19 .def_2))) (let ((.def_151 (< .def_150 (- 1)))) (let ((.def_152 (not .def_151))) (let ((.def_153 (or .def_152 A9))) (let ((.def_154 (not .def_153))) (let ((.def_155 (and .def_154 .def_149))) (let ((.def_156 (+ .def_14 .def_26))) (let ((.def_157 (< .def_156 (- 1)))) (let ((.def_158 (not .def_157))) (let ((.def_159 (and A9 .def_158))) (let ((.def_160 (< .def_80 1))) (let ((.def_161 (not .def_160))) (let ((.def_162 (+ .def_131 .def_52))) (let ((.def_163 (< .def_162 (- 1)))) (let ((.def_164 (and .def_163 .def_161))) (let ((.def_165 (or .def_164 .def_159))) (let ((.def_166 (not .def_165))) (let ((.def_167 (or .def_166 .def_155))) (let ((.def_168 (not .def_167))) (let ((.def_169 (+ .def_81 .def_3))) (let ((.def_170 (< .def_169 1))) (let ((.def_171 (not .def_170))) (let ((.def_172 (+ .def_42 .def_72))) (let ((.def_173 (< .def_172 1))) (let ((.def_174 (not .def_173))) (let ((.def_175 (or .def_174 .def_171))) (let ((.def_176 (< .def_109 (- 1)))) (let ((.def_177 (not .def_176))) (let ((.def_178 (+ .def_122 .def_131))) (let ((.def_179 (< .def_178 (- 1)))) (let ((.def_180 (not .def_179))) (let ((.def_181 (and .def_180 .def_177))) (let ((.def_182 (not .def_181))) (let ((.def_183 (or .def_182 .def_175))) (let ((.def_184 (not .def_183))) (let ((.def_185 (not A9))) (let ((.def_186 (and .def_185 A8))) (let ((.def_187 (or .def_27 A0))) (let ((.def_188 (= .def_187 .def_186))) (let ((.def_189 (and .def_188 .def_184))) (let ((.def_190 (and .def_189 .def_168))) (let ((.def_191 (or .def_190 .def_144))) (let ((.def_192 (not .def_191))) (let ((.def_193 (or .def_192 .def_99))) (let ((.def_194 (not .def_193))) (let ((.def_195 (and A0 .def_105))) (let ((.def_196 (not .def_195))) (let ((.def_197 (+ .def_80 .def_19))) (let ((.def_198 (< .def_197 1))) (let ((.def_199 (or .def_9 .def_198))) (let ((.def_200 (not .def_199))) (let ((.def_201 (and .def_200 .def_196))) (let ((.def_202 (or A6 A6))) (let ((.def_203 (not .def_202))) (let ((.def_204 (not .def_36))) (let ((.def_205 (and .def_105 .def_204))) (let ((.def_206 (or .def_205 .def_203))) (let ((.def_207 (not .def_206))) (let ((.def_208 (or .def_207 .def_201))) (let ((.def_209 (not .def_208))) (let ((.def_210 (< .def_52 1))) (let ((.def_211 (not A0))) (let ((.def_212 (and .def_211 .def_210))) (let ((.def_213 (or .def_161 A7))) (let ((.def_214 (and .def_213 .def_212))) (let ((.def_215 (not .def_214))) (let ((.def_216 (< .def_2 1))) (let ((.def_217 (and A6 .def_216))) (let ((.def_218 (< .def_42 (- 1)))) (let ((.def_219 (or .def_218 A2))) (let ((.def_220 (and .def_219 .def_217))) (let ((.def_221 (and .def_220 .def_215))) (let ((.def_222 (and .def_221 .def_209))) (let ((.def_223 (* 1 x1))) (let ((.def_224 (+ .def_223 .def_26))) (let ((.def_225 (< .def_224 1))) (let ((.def_226 (or A8 .def_225))) (let ((.def_227 (< .def_72 (- 1)))) (let ((.def_228 (or .def_227 .def_211))) (let ((.def_229 (not .def_228))) (let ((.def_230 (or .def_229 .def_226))) (let ((.def_231 (or A9 .def_211))) (let ((.def_232 (not .def_231))) (let ((.def_233 (and .def_66 A5))) (let ((.def_234 (and .def_233 .def_232))) (let ((.def_235 (or .def_234 .def_230))) (let ((.def_236 (< .def_14 1))) (let ((.def_237 (or A0 .def_236))) (let ((.def_238 (not .def_237))) (let ((.def_239 (< .def_81 (- 1)))) (let ((.def_240 (not .def_239))) (let ((.def_241 (< .def_42 1))) (let ((.def_242 (and .def_241 .def_240))) (let ((.def_243 (= .def_242 .def_238))) (let ((.def_244 (< .def_80 (- 1)))) (let ((.def_245 (not .def_244))) (let ((.def_246 (and A3 .def_245))) (let ((.def_247 (+ .def_223 .def_80))) (let ((.def_248 (< .def_247 (- 1)))) (let ((.def_249 (and .def_248 A2))) (let ((.def_250 (and .def_249 .def_246))) (let ((.def_251 (not .def_250))) (let ((.def_252 (= .def_251 .def_243))) (let ((.def_253 (not .def_252))) (let ((.def_254 (or .def_253 .def_235))) (let ((.def_255 (not .def_254))) (let ((.def_256 (and .def_255 .def_222))) (let ((.def_257 (+ .def_30 .def_52))) (let ((.def_258 (< .def_257 (- 1)))) (let ((.def_259 (not .def_258))) (let ((.def_260 (< .def_30 1))) (let ((.def_261 (and .def_260 .def_259))) (let ((.def_262 (not .def_261))) (let ((.def_263 (not A8))) (let ((.def_264 (= .def_73 .def_263))) (let ((.def_265 (and .def_264 .def_262))) (let ((.def_266 (or .def_176 .def_8))) (let ((.def_267 (< .def_41 (- 1)))) (let ((.def_268 (not .def_241))) (let ((.def_269 (and .def_268 .def_267))) (let ((.def_270 (or .def_269 .def_266))) (let ((.def_271 (not .def_270))) (let ((.def_272 (or .def_271 .def_265))) (let ((.def_273 (not .def_272))) (let ((.def_274 (not A1))) (let ((.def_275 (and A3 .def_274))) (let ((.def_276 (not .def_275))) (let ((.def_277 (= .def_16 A4))) (let ((.def_278 (not .def_277))) (let ((.def_279 (or .def_278 .def_276))) (let ((.def_280 (not .def_279))) (let ((.def_281 (or A9 .def_160))) (let ((.def_282 (not .def_281))) (let ((.def_283 (+ .def_102 .def_3))) (let ((.def_284 (< .def_283 (- 1)))) (let ((.def_285 (+ .def_81 .def_2))) (let ((.def_286 (< .def_285 1))) (let ((.def_287 (and .def_286 .def_284))) (let ((.def_288 (not .def_287))) (let ((.def_289 (or .def_288 .def_282))) (let ((.def_290 (and .def_289 .def_280))) (let ((.def_291 (not .def_290))) (let ((.def_292 (and .def_291 .def_273))) (let ((.def_293 (and A2 .def_103))) (let ((.def_294 (not .def_293))) (let ((.def_295 (or .def_35 A8))) (let ((.def_296 (and .def_295 .def_294))) (let ((.def_297 (< .def_29 1))) (let ((.def_298 (and .def_297 .def_64))) (let ((.def_299 (+ .def_26 .def_80))) (let ((.def_300 (< .def_299 (- 1)))) (let ((.def_301 (or .def_300 .def_8))) (let ((.def_302 (not .def_301))) (let ((.def_303 (or .def_302 .def_298))) (let ((.def_304 (not .def_303))) (let ((.def_305 (or .def_304 .def_296))) (let ((.def_306 (not .def_305))) (let ((.def_307 (not .def_260))) (let ((.def_308 (+ .def_2 .def_72))) (let ((.def_309 (< .def_308 1))) (let ((.def_310 (or .def_309 .def_307))) (let ((.def_311 (not .def_310))) (let ((.def_312 (+ .def_80 .def_0))) (let ((.def_313 (< .def_312 (- 1)))) (let ((.def_314 (not .def_313))) (let ((.def_315 (and A8 .def_314))) (let ((.def_316 (not .def_315))) (let ((.def_317 (and .def_316 .def_311))) (let ((.def_318 (or .def_100 A4))) (let ((.def_319 (= .def_103 .def_64))) (let ((.def_320 (or .def_319 .def_318))) (let ((.def_321 (not .def_320))) (let ((.def_322 (or .def_321 .def_317))) (let ((.def_323 (not .def_322))) (let ((.def_324 (or .def_323 .def_306))) (let ((.def_325 (not .def_324))) (let ((.def_326 (or .def_325 .def_292))) (let ((.def_327 (= .def_326 .def_256))) (let ((.def_328 (and .def_327 .def_194))) (let ((.def_329 (not .def_328))) (let ((.def_330 (and .def_185 .def_104))) (let ((.def_331 (not .def_330))) (let ((.def_332 (or A5 A4))) (let ((.def_333 (not .def_332))) (let ((.def_334 (and .def_333 .def_331))) (let ((.def_335 (not .def_334))) (let ((.def_336 (< .def_150 1))) (let ((.def_337 (= .def_16 .def_336))) (let ((.def_338 (not .def_337))) (let ((.def_339 (+ .def_41 .def_0))) (let ((.def_340 (< .def_339 (- 1)))) (let ((.def_341 (< .def_29 (- 1)))) (let ((.def_342 (= .def_341 .def_340))) (let ((.def_343 (= .def_342 .def_338))) (let ((.def_344 (not .def_343))) (let ((.def_345 (and .def_344 .def_335))) (let ((.def_346 (not .def_345))) (let ((.def_347 (and .def_8 A8))) (let ((.def_348 (= A5 .def_204))) (let ((.def_349 (not .def_348))) (let ((.def_350 (and .def_349 .def_347))) (let ((.def_351 (+ .def_19 .def_53))) (let ((.def_352 (< .def_351 (- 1)))) (let ((.def_353 (not .def_352))) (let ((.def_354 (and .def_353 .def_64))) (let ((.def_355 (not .def_354))) (let ((.def_356 (= .def_8 .def_236))) (let ((.def_357 (or .def_356 .def_355))) (let ((.def_358 (= .def_357 .def_350))) (let ((.def_359 (not .def_358))) (let ((.def_360 (and .def_359 .def_346))) (let ((.def_361 (or .def_185 .def_16))) (let ((.def_362 (or .def_211 .def_9))) (let ((.def_363 (or .def_362 .def_361))) (let ((.def_364 (not .def_363))) (let ((.def_365 (+ .def_41 .def_52))) (let ((.def_366 (< .def_365 1))) (let ((.def_367 (not .def_366))) (let ((.def_368 (and .def_367 .def_35))) (let ((.def_369 (not .def_368))) (let ((.def_370 (< .def_223 (- 1)))) (let ((.def_371 (not .def_370))) (let ((.def_372 (+ .def_53 .def_223))) (let ((.def_373 (< .def_372 (- 1)))) (let ((.def_374 (not .def_373))) (let ((.def_375 (or .def_374 .def_371))) (let ((.def_376 (not .def_375))) (let ((.def_377 (and .def_376 .def_369))) (let ((.def_378 (not .def_377))) (let ((.def_379 (or .def_378 .def_364))) (let ((.def_380 (< .def_41 1))) (let ((.def_381 (not .def_380))) (let ((.def_382 (or .def_16 .def_381))) (let ((.def_383 (< .def_53 (- 1)))) (let ((.def_384 (and .def_383 .def_274))) (let ((.def_385 (or .def_384 .def_382))) (let ((.def_386 (not .def_385))) (let ((.def_387 (not .def_297))) (let ((.def_388 (or .def_387 .def_211))) (let ((.def_389 (not .def_388))) (let ((.def_390 (+ .def_30 .def_72))) (let ((.def_391 (< .def_390 (- 1)))) (let ((.def_392 (not .def_391))) (let ((.def_393 (and .def_64 .def_392))) (let ((.def_394 (not .def_393))) (let ((.def_395 (or .def_394 .def_389))) (let ((.def_396 (not .def_395))) (let ((.def_397 (or .def_396 .def_386))) (let ((.def_398 (not .def_397))) (let ((.def_399 (and .def_398 .def_379))) (let ((.def_400 (or .def_399 .def_360))) (let ((.def_401 (or .def_218 .def_110))) (let ((.def_402 (+ .def_53 .def_81))) (let ((.def_403 (< .def_402 1))) (let ((.def_404 (not .def_403))) (let ((.def_405 (+ .def_109 .def_52))) (let ((.def_406 (< .def_405 1))) (let ((.def_407 (or .def_406 .def_404))) (let ((.def_408 (not .def_407))) (let ((.def_409 (or .def_408 .def_401))) (let ((.def_410 (not .def_409))) (let ((.def_411 (or A0 .def_211))) (let ((.def_412 (and .def_35 .def_64))) (let ((.def_413 (and .def_412 .def_411))) (let ((.def_414 (not .def_413))) (let ((.def_415 (or .def_414 .def_410))) (let ((.def_416 (not .def_415))) (let ((.def_417 (+ .def_2 .def_122))) (let ((.def_418 (< .def_417 (- 1)))) (let ((.def_419 (= .def_418 .def_74))) (let ((.def_420 (or A5 .def_216))) (let ((.def_421 (not .def_420))) (let ((.def_422 (or .def_421 .def_419))) (let ((.def_423 (not .def_422))) (let ((.def_424 (and A6 A4))) (let ((.def_425 (+ .def_122 .def_30))) (let ((.def_426 (< .def_425 (- 1)))) (let ((.def_427 (not .def_426))) (let ((.def_428 (and .def_185 .def_427))) (let ((.def_429 (not .def_428))) (let ((.def_430 (and .def_429 .def_424))) (let ((.def_431 (not .def_430))) (let ((.def_432 (and .def_431 .def_423))) (let ((.def_433 (not .def_432))) (let ((.def_434 (and .def_433 .def_416))) (let ((.def_435 (not .def_434))) (let ((.def_436 (+ .def_52 .def_81))) (let ((.def_437 (< .def_436 (- 1)))) (let ((.def_438 (not .def_437))) (let ((.def_439 (< .def_81 1))) (let ((.def_440 (not .def_439))) (let ((.def_441 (or .def_440 .def_438))) (let ((.def_442 (and A9 A8))) (let ((.def_443 (not .def_442))) (let ((.def_444 (or .def_443 .def_441))) (let ((.def_445 (not .def_444))) (let ((.def_446 (< .def_131 1))) (let ((.def_447 (not .def_446))) (let ((.def_448 (and .def_447 A9))) (let ((.def_449 (or A5 .def_211))) (let ((.def_450 (or .def_449 .def_448))) (let ((.def_451 (not .def_450))) (let ((.def_452 (or .def_451 .def_445))) (let ((.def_453 (and .def_9 .def_185))) (let ((.def_454 (and .def_241 A7))) (let ((.def_455 (not .def_454))) (let ((.def_456 (and .def_455 .def_453))) (let ((.def_457 (+ .def_223 .def_30))) (let ((.def_458 (< .def_457 1))) (let ((.def_459 (not .def_458))) (let ((.def_460 (or .def_459 A0))) (let ((.def_461 (or .def_9 A1))) (let ((.def_462 (not .def_461))) (let ((.def_463 (and .def_462 .def_460))) (let ((.def_464 (not .def_463))) (let ((.def_465 (and .def_464 .def_456))) (let ((.def_466 (= .def_465 .def_452))) (let ((.def_467 (= .def_466 .def_435))) (let ((.def_468 (not .def_467))) (let ((.def_469 (or .def_468 .def_400))) (let ((.def_470 (not .def_469))) (let ((.def_471 (+ .def_81 .def_14))) (let ((.def_472 (< .def_471 1))) (let ((.def_473 (not .def_472))) (let ((.def_474 (or .def_35 .def_473))) (let ((.def_475 (+ .def_2 .def_52))) (let ((.def_476 (< .def_475 (- 1)))) (let ((.def_477 (not .def_476))) (let ((.def_478 (or .def_66 .def_477))) (let ((.def_479 (not .def_478))) (let ((.def_480 (and .def_479 .def_474))) (let ((.def_481 (not .def_480))) (let ((.def_482 (+ .def_72 .def_41))) (let ((.def_483 (< .def_482 1))) (let ((.def_484 (not .def_483))) (let ((.def_485 (+ .def_2 .def_42))) (let ((.def_486 (< .def_485 1))) (let ((.def_487 (or .def_486 .def_484))) (let ((.def_488 (< .def_26 1))) (let ((.def_489 (not .def_216))) (let ((.def_490 (and .def_489 .def_488))) (let ((.def_491 (or .def_490 .def_487))) (let ((.def_492 (or .def_491 .def_481))) (let ((.def_493 (not .def_492))) (let ((.def_494 (+ .def_42 .def_52))) (let ((.def_495 (< .def_494 (- 1)))) (let ((.def_496 (not .def_495))) (let ((.def_497 (< .def_77 1))) (let ((.def_498 (not .def_497))) (let ((.def_499 (or .def_498 .def_496))) (let ((.def_500 (+ .def_52 .def_102))) (let ((.def_501 (< .def_500 1))) (let ((.def_502 (+ .def_3 .def_19))) (let ((.def_503 (< .def_502 (- 1)))) (let ((.def_504 (and .def_503 .def_501))) (let ((.def_505 (not .def_504))) (let ((.def_506 (or .def_505 .def_499))) (let ((.def_507 (= A4 A1))) (let ((.def_508 (not .def_507))) (let ((.def_509 (and .def_66 A7))) (let ((.def_510 (not .def_509))) (let ((.def_511 (or .def_510 .def_508))) (let ((.def_512 (not .def_511))) (let ((.def_513 (and .def_512 .def_506))) (let ((.def_514 (or .def_513 .def_493))) (let ((.def_515 (not .def_100))) (let ((.def_516 (< .def_19 (- 1)))) (let ((.def_517 (not .def_516))) (let ((.def_518 (and .def_517 .def_515))) (let ((.def_519 (not .def_1))) (let ((.def_520 (and .def_64 .def_519))) (let ((.def_521 (not .def_520))) (let ((.def_522 (or .def_521 .def_518))) (let ((.def_523 (not .def_522))) (let ((.def_524 (or A1 .def_16))) (let ((.def_525 (and A9 A9))) (let ((.def_526 (not .def_525))) (let ((.def_527 (or .def_526 .def_524))) (let ((.def_528 (= .def_527 .def_523))) (let ((.def_529 (+ .def_109 .def_72))) (let ((.def_530 (< .def_529 (- 1)))) (let ((.def_531 (or .def_530 A5))) (let ((.def_532 (not .def_531))) (let ((.def_533 (not .def_210))) (let ((.def_534 (and .def_533 .def_211))) (let ((.def_535 (not .def_534))) (let ((.def_536 (or .def_535 .def_532))) (let ((.def_537 (or .def_160 .def_73))) (let ((.def_538 (not .def_537))) (let ((.def_539 (= .def_16 .def_9))) (let ((.def_540 (not .def_539))) (let ((.def_541 (or .def_540 .def_538))) (let ((.def_542 (not .def_541))) (let ((.def_543 (or .def_542 .def_536))) (let ((.def_544 (not .def_543))) (let ((.def_545 (and .def_544 .def_528))) (let ((.def_546 (not .def_545))) (let ((.def_547 (and .def_546 .def_514))) (let ((.def_548 (not .def_547))) (let ((.def_549 (+ .def_3 .def_80))) (let ((.def_550 (< .def_549 (- 1)))) (let ((.def_551 (not .def_550))) (let ((.def_552 (or .def_551 A7))) (let ((.def_553 (or .def_274 .def_211))) (let ((.def_554 (not .def_553))) (let ((.def_555 (and .def_554 .def_552))) (let ((.def_556 (not .def_555))) (let ((.def_557 (or .def_263 A6))) (let ((.def_558 (not .def_557))) (let ((.def_559 (+ .def_26 .def_122))) (let ((.def_560 (< .def_559 1))) (let ((.def_561 (not .def_560))) (let ((.def_562 (or .def_561 .def_8))) (let ((.def_563 (not .def_562))) (let ((.def_564 (or .def_563 .def_558))) (let ((.def_565 (and .def_564 .def_556))) (let ((.def_566 (+ .def_26 .def_102))) (let ((.def_567 (< .def_566 1))) (let ((.def_568 (not .def_567))) (let ((.def_569 (and .def_185 .def_568))) (let ((.def_570 (not .def_569))) (let ((.def_571 (and .def_91 A7))) (let ((.def_572 (or .def_571 .def_570))) (let ((.def_573 (not .def_572))) (let ((.def_574 (+ .def_2 .def_41))) (let ((.def_575 (< .def_574 1))) (let ((.def_576 (or .def_575 .def_16))) (let ((.def_577 (+ .def_109 .def_26))) (let ((.def_578 (< .def_577 (- 1)))) (let ((.def_579 (not .def_578))) (let ((.def_580 (+ .def_223 .def_131))) (let ((.def_581 (< .def_580 1))) (let ((.def_582 (and .def_581 .def_579))) (let ((.def_583 (or .def_582 .def_576))) (let ((.def_584 (and .def_583 .def_573))) (let ((.def_585 (or .def_584 .def_565))) (let ((.def_586 (or A1 .def_104))) (let ((.def_587 (not .def_586))) (let ((.def_588 (and .def_384 .def_587))) (let ((.def_589 (not .def_588))) (let ((.def_590 (+ .def_223 .def_19))) (let ((.def_591 (< .def_590 1))) (let ((.def_592 (and .def_591 .def_35))) (let ((.def_593 (not .def_592))) (let ((.def_594 (and .def_185 A4))) (let ((.def_595 (not .def_594))) (let ((.def_596 (and .def_595 .def_593))) (let ((.def_597 (or .def_596 .def_589))) (let ((.def_598 (not .def_597))) (let ((.def_599 (< .def_131 (- 1)))) (let ((.def_600 (+ .def_42 .def_53))) (let ((.def_601 (< .def_600 1))) (let ((.def_602 (or .def_601 .def_599))) (let ((.def_603 (or A2 A7))) (let ((.def_604 (and .def_603 .def_602))) (let ((.def_605 (+ .def_102 .def_81))) (let ((.def_606 (< .def_605 (- 1)))) (let ((.def_607 (not .def_606))) (let ((.def_608 (and .def_607 A2))) (let ((.def_609 (< .def_122 (- 1)))) (let ((.def_610 (not .def_609))) (let ((.def_611 (and .def_610 .def_263))) (let ((.def_612 (not .def_611))) (let ((.def_613 (or .def_612 .def_608))) (let ((.def_614 (or .def_613 .def_604))) (let ((.def_615 (or .def_614 .def_598))) (let ((.def_616 (or .def_615 .def_585))) (let ((.def_617 (or .def_616 .def_548))) (let ((.def_618 (not .def_617))) (let ((.def_619 (and .def_618 .def_470))) (let ((.def_620 (not .def_619))) (let ((.def_621 (= .def_620 .def_329))) (let ((.def_622 (not .def_621))) (let ((.def_623 (<= x9 1))) (let ((.def_624 (<= 0 x9))) (let ((.def_625 (<= x8 1))) (let ((.def_626 (<= 0 x8))) (let ((.def_627 (<= x7 1))) (let ((.def_628 (<= 0 x7))) (let ((.def_629 (<= x6 1))) (let ((.def_630 (<= 0 x6))) (let ((.def_631 (<= x5 1))) (let ((.def_632 (<= 0 x5))) (let ((.def_633 (<= x4 1))) (let ((.def_634 (<= 0 x4))) (let ((.def_635 (<= x3 1))) (let ((.def_636 (<= 0 x3))) (let ((.def_637 (<= x2 1))) (let ((.def_638 (<= 0 x2))) (let ((.def_639 (<= x1 1))) (let ((.def_640 (<= 0 x1))) (let ((.def_641 (<= x0 1))) (let ((.def_642 (<= 0 x0))) (let ((.def_643 (and .def_642 .def_641 .def_640 .def_639 .def_638 .def_637 .def_636 .def_635 .def_634 .def_633 .def_632 .def_631 .def_630 .def_629 .def_628 .def_627 .def_626 .def_625 .def_624 .def_623 .def_622))) .def_643)))))))))))))))))))))))))))))))))))))))))))))))))))))))))))))))))))))))))))))))))))))))))))))))))))))))))))))))))))))))))))))))))))))))))))))))))))))))))))))))))))))))))))))))))))))))))))))))))))))))))))))))))))))))))))))))))))))))))))))))))))))))))))))))))))))))))))))))))))))))))))))))))))))))))))))))))))))))))))))))))))))))))))))))))))))))))))))))))))))))))))))))))))))))))))))))))))))))))))))))))))))))))))))))))))))))))))))))))))))))))))))))))))))))))))))))))))))))))))))))))))))))))))))))))))))))))))))))))))))))))))))))))))))))))))))))))))))))))))))))))))))))))))))))))))))))))))))))))))))))))))))))))))))))))))))))))))))))))))))))))))))
(check-sat)
